5333
500000
333060
333060
333060
333060
332046
332046
332046
332046
332046
332046
332046
332046
332046
330699
330699
330699
330699
330699
330699
330699
330699
330699
330699
330699
330699
330699
330699
330699
330699
330699
330699
330699
330699
330457
329155
329155
329155
329155
329155
329155
329155
329155
329155
329155
329155
329155
329155
329155
329155
329155
329155
329155
328590
328590
328590
328590
328590
328590
328590
328590
328590
328590
328590
328590
328590
328590
328590
328418
328418
328418
328418
328418
327779
327779
327779
327779
327779
327779
327779
327779
327779
327779
327779
326685
326685
326685
326685
326685
326685
326685
326685
326685
326685
326685
326647
326647
326647
326647
326647
326647
326647
326647
326647
326647
326647
326647
326647
326647
326647
325658
325658
325658
325658
325658
325658
325658
325658
325658
325658
325658
325658
325502
325502
325502
325502
325502
325502
325502
325502
325502
325502
325502
325502
325502
325105
325105
325105
325105
325105
325105
325105
325105
325105
325105
325105
325105
325105
325105
325105
325062
325062
325062
325062
325062
325062
325062
325062
325062
324588
324588
324588
324588
324311
324311
324311
324311
324311
324311
324311
324311
324311
324311
324311
324311
324311
323868
323868
323868
323868
323868
323868
323868
323868
323868
323370
323370
323370
323370
323370
323370
323370
323370
323370
323370
323323
323323
323323
323323
323323
323323
323323
323323
323323
323323
323323
323323
323323
322165
322092
322092
322092
322092
322092
322092
322092
322092
322092
322092
322092
322092
320852
320852
320852
320852
320852
320852
320852
320852
320852
320852
320852
320852
320852
320852
320852
320852
320852
320852
320652
320652
320652
320652
320652
320652
320652
320652
320652
320652
320132
320132
320132
320132
320132
320132
320132
320132
320132
320132
320132
320132
320132
320132
320132
320132
319629
318586
318586
318586
318586
318586
318586
318586
318586
318586
318586
318586
318586
318586
318586
318586
318586
318586
318586
318486
318486
318486
318486
318486
318486
318486
318486
318486
318486
318486
318486
318486
318486
317958
317958
317958
317958
317958
317958
317958
317958
317958
317958
317958
317958
317958
317958
317745
317745
317745
317745
317745
317745
317745
317745
317745
316332
316332
316332
316332
316332
316332
316332
316332
316332
316332
316332
316332
316332
316332
316332
316332
315613
315613
315613
315613
315613
315613
315613
315613
315613
315613
315613
315613
315502
315502
315502
315502
315502
315502
315502
315502
315502
315502
315502
315502
315502
315450
315450
315450
315450
315450
315450
315450
315450
315450
315450
315450
315450
315450
314707
314707
314707
314707
314707
314083
314083
314083
314083
314083
314083
314083
314083
314083
314083
314083
314083
314083
314083
314083
314083
314083
314010
314010
314010
314010
314010
314010
314010
314010
314010
314010
314010
313991
313991
313991
313991
313991
313991
313991
313991
313991
313991
313991
313991
313991
313991
313750
313750
313750
313750
313750
313750
313750
313750
312800
312800
312800
312800
312800
312800
312800
312800
312584
312584
312541
312541
312541
312541
312541
312541
312541
312541
312541
312541
312541
312541
312541
312541
312541
312541
312541
312541
312541
312541
310605
310605
310605
310605
310605
310605
310605
310605
310605
310605
310605
310605
310605
310278
310278
310278
310278
310278
309631
309631
309631
309631
309631
309631
309631
309631
309372
309300
309300
308800
308800
308017
308017
308017
307917
307917
307917
307917
307917
307917
307917
307917
307917
307917
307917
307917
307917
307917
307917
306819
306819
306819
306819
306819
306819
306819
306819
306819
306819
306819
306819
306819
306819
306819
306819
306691
306691
305798
305798
305798
305798
305798
305798
305798
305798
305798
305798
305798
305758
305758
305758
305758
305758
305758
305758
305758
305758
305758
305758
305758
304736
303203
303203
303203
302803
302803
302803
302803
302803
302803
302803
302803
302803
302803
302803
302803
302803
302803
302803
302803
302803
302803
302803
302673
302673
302673
302673
302673
302673
302673
302673
302673
302673
302673
302673
302673
302673
302471
302471
302471
302471
302471
302471
302471
302471
302471
302471
302471
302471
302471
301942
301942
301942
301942
301942
301942
301942
301942
300432
300432
300432
300432
300432
300432
300432
300432
300432
297002
297002
297002
297002
297002
297002
297002
297002
297002
297002
297002
297002
297002
297002
297002
297002
297002
296896
296896
296896
296896
296896
296896
296896
296896
296896
296896
296896
296896
296896
296896
296896
296896
296896
296896
296857
296857
296857
296857
296857
296857
296857
296857
296857
296857
296857
296857
296857
296338
296338
296338
296338
296338
295859
295859
295859
295859
295859
295859
295859
295859
295859
295859
295859
295859
295859
295859
295859
295859
295859
295328
295328
295328
295328
295328
295328
295328
294850
294850
294850
294443
294443
294443
294443
294443
294438
294438
294438
294438
294438
294438
294438
294438
294438
294438
294438
294438
294246
293776
293776
293776
293354
293354
293354
293354
293354
293354
293354
293354
293354
293354
293354
293354
293354
293354
293354
293354
293354
293354
293291
293291
293291
293291
293291
293291
292648
292648
292648
292648
292648
292648
292648
292648
292648
292648
292648
292648
292648
292648
292599
292599
292599
292599
292599
292599
292599
292599
292599
292599
292599
292599
292599
292599
292599
292599
292599
292599
292599
291175
291175
291175
291175
291175
291175
291175
291175
291175
289584
289584
289530
289530
289530
289530
289530
289530
289530
289530
289530
289530
289201
289201
289201
289201
289201
289201
289201
289201
289201
289201
287547
287547
287547
287547
287547
287547
287547
287547
287547
287547
287547
287547
287547
287547
287547
287038
287038
287038
287038
287038
287038
287038
287038
287038
287038
287038
286410
286410
286410
286410
286410
286410
286410
286410
286410
284717
284717
284717
284717
284717
284640
284640
284640
284463
284463
284463
284463
284463
284463
284463
284463
284463
284463
281452
281452
281452
281452
281452
281452
281452
281452
281452
281452
281452
281452
281452
281452
281452
281452
281452
280601
280601
280601
280601
280601
280601
280601
280601
280601
280601
280601
280601
280601
280601
279357
279357
279357
279357
279357
279357
279357
279357
279357
279357
279357
279357
279357
279357
279357
279357
279318
279318
279318
279318
279318
279318
279318
279318
279318
279318
279318
279318
279318
279318
279318
279318
279318
279219
279219
279219
279219
279219
279219
279219
278835
278835
278835
278835
278835
278835
278835
278835
278774
278774
278774
278774
278774
278774
278774
278774
278774
278520
278520
278520
278520
278520
278520
278520
278409
278409
278409
278409
278409
278409
278409
278409
278409
278409
278409
278409
278409
278409
278409
278409
278038
278038
277136
277136
277136
277136
277136
277136
277136
277136
277136
277056
277056
277056
274326
274326
274326
274326
274326
274326
274326
274326
274326
274326
274326
274326
274326
274326
274326
274326
274168
274168
274168
274168
274168
273818
273818
273818
273818
273818
273818
272703
272703
272703
272703
272703
272703
272703
272703
272703
272703
272703
272703
272656
272656
272656
272656
272656
272656
272656
272656
272656
272656
272656
272656
272656
272656
272656
272656
270094
270094
270094
270094
270094
270094
270094
270094
269663
269663
269663
269663
269663
269569
269569
269569
269569
269569
269569
269569
269569
269288
269288
269288
269253
269253
269253
269253
269253
269253
269253
269253
269253
269253
269253
269253
269253
269253
269253
269253
269253
269253
269253
269253
268120
268120
268120
268120
268120
268120
268120
268120
268120
268120
268120
268120
268120
268120
268120
267771
267702
267702
267702
267702
267702
267702
267702
267702
267702
267702
267702
267702
267702
267702
267702
267702
267702
267702
267702
267702
265920
265920
265920
265920
265920
265920
265920
265920
265920
265920
265920
265920
265920
265920
265920
265920
265920
262655
262655
262655
262655
262655
262655
262655
262655
262655
262655
262655
262655
262655
262655
260405
260405
260405
260405
260405
259496
259496
259496
259496
259496
259496
259496
259496
259496
259496
259496
259496
259496
259496
259496
259496
259496
259496
259496
259496
257898
257898
257898
257898
257816
257816
257816
257816
257816
257816
257568
257568
257568
257568
257568
257568
257568
257568
257568
257397
257397
257397
257397
257397
257397
257397
257397
257189
257189
257189
257189
257189
257189
257189
257189
257189
257189
257189
254204
254204
254204
254204
254204
254204
254204
254204
254204
254204
254204
254204
254204
254055
254055
254055
254055
254055
254055
254055
254055
254055
254055
253091
253057
253057
253057
253057
253057
253057
253057
253057
249917
249917
249917
249917
249917
249917
249633
249633
249633
249633
249633
249633
249633
249633
249633
249633
249633
249633
249633
249633
249633
249633
248543
248543
248543
248543
248543
248543
248543
248543
248543
248543
248543
248543
248543
248543
248543
248543
248543
248543
248543
248543
248147
248147
248147
248147
248147
248147
248147
248147
248147
247423
247423
247423
247423
247423
247423
247423
247423
247423
247423
247423
247327
247327
247327
247327
247327
247327
247327
247327
247327
247327
247327
247327
247327
247327
247327
247327
247327
247327
247327
247327
246804
246804
246804
246804
245366
245366
245366
245366
245366
245366
244041
244041
244000
244000
244000
244000
244000
244000
244000
244000
244000
244000
244000
244000
244000
244000
243595
243595
243595
243595
243595
243595
242342
242342
242342
241828
241828
241828
241828
241828
241828
241828
241828
241828
241828
241828
240719
240719
240719
240611
240611
240611
240611
240611
240611
240611
240611
240249
240249
240249
240249
240249
240249
240249
240249
240249
240249
240249
240249
240249
240249
240249
240249
239140
239140
239140
239140
239140
239140
239140
239140
239140
239140
239140
239140
239140
239140
238550
238550
238550
238550
238550
238550
238550
238550
238550
238550
238550
238550
238550
237231
237231
237231
237231
237231
237231
237231
237231
237231
237231
237231
237231
236780
236780
236780
236780
236780
236780
236780
236780
236715
236715
236537
236537
236537
236537
236537
236537
236537
236537
236537
236537
236537
236537
236537
236537
235928
235928
235928
235928
235928
235928
235928
235928
235928
235928
235451
235451
235451
235451
235451
235451
235451
235451
235451
235451
235451
234860
234860
234860
234860
234860
234860
234860
234361
234361
234361
234361
234361
234361
234361
234361
234361
234361
234361
234361
234361
234361
232798
232798
232798
232798
232798
232798
232798
232798
232798
232798
232798
232798
232798
232118
232118
232118
232118
232118
232118
232118
232118
231017
231017
231017
231017
231017
231017
231017
231017
231017
231017
231017
230290
230290
230290
230290
230290
230290
230290
230290
229931
229931
229931
229931
229931
229931
229931
229931
229931
229055
229055
229055
229055
229055
229055
229055
229055
229055
229055
229055
229055
228474
228474
228474
228474
227030
227030
227030
227030
227030
227030
227030
227030
227030
227030
226522
226522
226522
226522
226522
226522
226522
226522
226522
226522
225857
225857
225857
225857
225857
225857
225857
225857
225857
225857
225857
225857
225233
225233
225233
225233
225233
225233
225233
225233
225233
225233
225233
225233
225233
225233
225233
225233
225233
225233
225233
225233
224580
224580
224580
224580
224580
224580
224580
224580
224580
224580
224580
224580
224580
224580
224580
224580
224580
224580
224215
224215
224215
224215
224215
224215
224215
224215
224215
224215
224215
224094
222776
222776
222776
222221
222221
222221
221760
221760
221760
221760
221760
221760
221760
221760
221760
221760
221760
221760
221760
221760
220553
220553
220553
220553
220553
220553
220553
220553
220553
220553
220553
220553
220553
220553
220510
220510
220510
220510
220510
220510
220510
220510
220510
220510
220510
220510
220510
220510
220510
220510
220510
220510
220510
219831
219262
219262
219262
219262
219262
219262
219262
219262
219262
219262
219262
219262
219262
219262
219262
219262
219262
219262
219262
219211
217768
217768
217768
217768
217768
217768
217768
217768
217768
217768
217768
217768
217768
217768
217768
217768
217768
217768
217391
216773
216773
216773
216773
216773
216773
216773
216773
216773
216773
216773
216588
216588
216588
216588
216588
216588
216588
216588
216588
216588
216588
216588
216588
216588
216588
216588
216588
216588
216588
216588
216457
216457
216457
216457
216457
216457
216457
216330
216330
216330
216330
216330
214917
214917
214917
214917
214917
214917
214917
214917
214917
213568
213568
213568
213568
213568
213568
213568
213568
213568
213568
213568
213568
213568
213568
213568
213568
213568
213568
213568
212704
212704
212704
212704
212704
212704
212704
212704
212704
212704
212704
212704
212704
212704
212704
212383
212383
212383
212383
212383
212383
212383
212383
212383
212383
212383
212383
212383
212383
212383
212383
212383
212383
212383
212383
212152
212152
212152
212152
212152
212152
212152
212152
212152
212152
212152
212152
212152
212152
212152
212152
212152
212152
212152
210346
210346
210346
210346
210346
210346
210346
210346
210346
210346
210346
210346
210346
210346
210346
210346
209979
209979
209979
209979
209979
209263
209263
209263
209263
209263
209263
209263
209263
209263
209263
209263
209263
209263
209263
209263
209263
209263
209263
208980
208980
208980
208980
208980
208980
208980
208980
208980
208980
208980
208980
208980
208980
208980
208353
208353
208353
208353
208353
208353
208353
208353
208353
208104
208104
208104
208104
208104
208104
208104
208104
208104
208104
208104
208104
208104
208104
207941
207941
207941
207941
207941
207941
207941
207941
207941
207941
207941
207941
207941
207941
207941
207941
207941
207941
207941
206774
206774
206774
206774
206774
206758
206594
206594
206594
206594
206594
206594
206594
206594
206594
206594
206412
206412
206412
206412
206412
206412
206412
206412
206412
206412
206412
206412
205918
205918
205918
205918
205918
205918
205918
205918
205918
205918
204783
204783
204783
204783
204783
204482
204482
204482
204482
204482
204482
204482
204482
204482
204482
204482
204482
204482
204323
204323
204323
204323
204323
204323
204323
204323
204323
204323
204323
201166
201166
201166
201166
201166
201166
201166
201166
201166
201166
201166
201038
201038
201038
201038
201038
201038
201038
201038
201038
201038
201038
201038
201038
201038
200050
200050
200050
200003
200003
200003
199389
199389
199389
199389
199389
199389
199389
199389
199389
199389
199389
199389
198126
198126
198126
198126
198126
198126
198126
198126
198126
198126
198126
198126
197635
197635
197635
197635
197635
197635
197635
197635
197635
197635
197635
197635
197635
197635
197635
197635
197635
197635
197635
197635
197618
197618
197618
197618
195340
195340
195340
195340
195340
195340
195340
195340
195340
195340
195340
195340
195340
195340
194705
194705
194705
194705
194705
194705
194705
194705
194705
194705
194705
194705
194705
194705
194189
194189
194189
194189
194189
194189
194189
194189
194189
194189
194189
194151
194151
194151
194151
194151
194151
194151
194151
194151
194151
194151
194151
194151
194151
194151
194151
194151
194151
194151
194151
192843
192843
192843
192843
192843
192843
192843
192843
192843
192843
192843
192111
192111
190830
190830
190830
190830
190830
190830
190830
190830
190830
190830
190830
190830
190830
190830
190830
190830
190830
190830
190830
190830
190511
190511
190511
190511
190511
190511
190511
190511
190511
190511
190511
190511
190511
190511
190511
190511
190511
190511
190511
190511
190335
190335
190335
190335
190335
190335
190335
190335
190335
190335
190335
190335
190335
190297
190297
190258
190258
190258
190258
190258
190258
190258
190258
190258
190258
190258
190258
190258
190258
190258
190258
190258
190258
190241
190241
190241
190241
190241
190241
190241
190241
190241
190241
190241
190241
190241
190241
190241
189063
189063
189063
189063
189063
189063
189063
189063
189063
189063
189063
189063
189063
189063
189063
189063
189063
189063
189063
188742
188742
188742
188742
188742
188742
188742
188742
188742
188742
188742
188742
188742
188742
188742
188742
188742
188742
188742
188352
188352
188352
188352
188352
188352
188352
188352
188352
188352
186746
186746
186746
186746
186746
186746
186746
186746
186746
186746
186746
186746
186746
186746
186562
186562
186562
186562
186562
186562
186562
186562
186562
186562
186562
186562
186562
186562
186562
186562
185711
185711
185711
185681
185681
185681
185681
184841
184841
184841
184841
184841
184841
184841
184841
184841
184841
184841
184838
184838
184838
184838
184838
184838
184838
184720
184720
184720
184720
184720
184720
184720
184720
184720
184720
184720
184720
184720
184720
184720
184720
184720
184720
184720
184720
184225
184225
184225
184225
184225
184225
184225
184225
184225
184225
184225
184225
184225
184225
184225
184225
184225
184225
183568
183568
181934
181934
181934
181934
181934
181934
181934
181934
181934
181934
181934
181934
181934
181934
181934
181934
181934
181934
181934
181934
181811
181811
181811
181811
181811
181811
181811
181811
181811
181811
181811
181811
181811
181811
181811
181811
181811
181811
181655
181655
181655
181655
181655
181655
181655
181655
181655
180652
180652
180652
180652
180652
180652
180652
180652
179866
179866
179866
179866
179866
179866
179866
179866
179866
179866
179866
179866
179866
179866
179866
179866
179866
179866
179866
179866
179542
179542
179542
179542
179542
179542
179542
179542
179542
179542
179542
179542
179542
179542
178862
178862
178862
178862
178862
178862
178862
178862
178862
178862
178862
178862
178862
178862
178862
178862
178862
178862
178862
178723
178723
178723
178723
178723
178723
178723
178723
178723
178723
178723
178723
178723
178723
177476
177476
177476
177476
177391
177391
177391
177391
177391
177391
177391
177391
177391
177391
177391
177391
177391
177391
177391
177391
177391
177391
177391
177391
177296
177296
177296
177296
177296
177296
176538
176538
176538
176538
176538
176538
176538
176538
176538
176538
176538
176538
176538
176538
176538
176538
176538
176538
176483
176483
176483
176483
176483
176483
176483
176483
176483
176483
176483
176483
176483
176137
176137
176137
176137
176137
176137
176137
176137
176137
176137
175537
175537
175537
175537
175537
175537
175537
175537
175537
175537
175018
175018
175018
175018
175018
175018
175018
175018
175018
175018
175018
175018
175018
175018
175018
174912
174912
174912
174912
174912
174912
174912
174912
174912
174912
174912
174912
174912
174912
174912
174912
174912
174912
174912
174912
174831
174831
174831
174831
174831
174831
174831
174831
174831
174831
174831
174831
174220
174220
174220
174220
174220
173387
173387
173387
173387
173387
173387
173387
173387
173367
173367
173367
173367
173367
173367
173367
173367
173367
173367
173367
173367
173367
173367
173367
173367
173367
172673
172673
172673
172673
172673
172673
172617
172617
172617
172617
172617
172617
172617
172617
172617
172617
172617
172617
172617
172617
172617
169956
169956
169956
169956
169956
169956
169956
169956
169956
169956
169956
169956
169956
169956
169956
169956
169374
169374
169374
169374
168835
168835
168835
168835
168835
168835
168835
168835
168835
168835
168835
168172
168172
168172
168172
168172
168172
167357
167357
167357
167357
167029
167029
167029
167029
167029
167029
167029
167029
167029
167029
167029
167029
167029
167029
167029
167029
167029
166964
166964
166964
166964
166964
166964
166964
166722
166722
166722
166722
166722
166722
166722
166722
166722
166295
166295
166295
166295
166295
166295
166295
166295
166295
166295
166295
166295
166295
166295
166295
166295
165932
165932
165932
165932
165932
165932
165932
165932
165932
165932
165932
165932
165932
165932
165851
165581
165581
165581
165581
165581
165581
165581
165581
165581
165581
165581
165581
165581
165581
165581
165581
165545
165545
165545
165545
165545
165545
165545
164841
164841
164487
164487
164487
164487
164487
164487
164487
164487
164487
164487
164487
164487
164487
164487
164487
164487
164487
163546
163546
163546
163546
163546
163546
163546
163546
163546
163546
163546
163546
163546
163546
163288
163288
163288
163288
161855
161855
161855
161855
161855
161855
161830
161830
161830
161830
161830
161830
161830
161830
161830
161062
161062
161062
161062
161062
161062
161062
161062
161062
161062
160659
160659
160659
160659
160258
160254
160254
160254
160254
159600
159600
159600
159600
159600
159600
159600
159600
159600
159600
159600
159600
159600
159600
159600
159242
159242
159242
159242
159242
159242
159242
159242
159128
159128
159128
159128
159128
159128
159128
159128
159128
159128
159128
159128
159128
159128
159128
159128
159128
159128
159128
159128
159002
159002
159002
159002
159002
159002
159002
159002
159002
159002
159002
159002
158574
158574
157457
157457
157457
157457
153520
153520
153520
152715
152715
152715
152715
152715
152715
152715
151808
151808
151808
151257
151257
151257
151257
151257
151257
151248
151248
151248
151248
151248
151248
151248
151248
151248
151248
151248
150228
150228
150228
150228
150228
150228
150228
150228
150228
149793
149793
149793
149793
149793
149793
149793
149793
149793
149793
149793
149793
149793
149793
149793
149538
149538
149538
149538
149538
149538
149538
149538
149538
149538
149538
149538
149538
149538
149538
149538
149538
149538
149538
149466
149466
149466
149466
149466
149104
149104
149104
149104
149104
149104
149104
149104
149104
149104
149104
149104
149104
148816
148816
148816
148816
148816
148816
147838
147838
147838
147838
147838
147838
147838
147838
147838
147838
147799
147799
147799
147799
147799
147799
147799
147799
147799
147799
147799
147799
147799
147662
147662
147662
147662
147662
147662
147662
147662
147662
147662
147662
147662
147662
147662
147662
147662
147662
147662
147662
146769
146769
146769
146769
146769
146769
146769
145773
145773
145773
145773
145773
145773
145773
145773
145773
145773
145773
144925
144925
144925
144925
144925
144925
144925
144844
144844
144844
144844
144844
144844
144844
144844
144844
144844
144844
144844
144844
144844
144844
144844
144844
144844
143997
143997
143997
143997
143997
143997
143997
143997
143997
143997
143997
143997
143997
143997
143997
143864
143864
143864
143864
143864
143864
143864
143864
143864
143864
140731
140731
140731
140731
140731
140731
140731
140731
140731
140731
140731
140731
140731
140731
140731
140731
140731
140110
140110
140110
140110
137181
137181
137181
137181
137181
137181
137181
137181
137181
137181
137181
137181
137181
137181
137181
137008
137008
137008
137008
137008
137008
137008
137008
137008
137008
137008
137008
137008
137008
137008
137008
137008
137008
137008
137008
134993
134993
134993
134993
134993
134993
134993
134993
134993
134993
134993
134993
134993
134993
134993
134993
134993
134993
134993
134207
134207
134207
134207
134207
134207
134207
134207
134207
134207
134207
134207
134207
134207
134207
134207
134207
134207
134207
134011
134011
134011
134011
134011
134011
134011
134011
133547
133547
133547
133547
133547
133547
133547
133547
133547
133547
133547
133547
132149
132149
132149
132149
132149
132149
132149
132149
132149
132149
132149
132149
132149
131506
131506
131506
131506
131506
131506
131506
131506
131506
131506
131506
131506
131506
130414
130414
130414
130414
130414
130414
130414
130414
130414
130414
130414
130414
130414
130414
130414
130414
130414
130414
130414
130414
129170
129170
129170
128704
128704
128704
128704
128704
128704
128704
128704
128704
128704
128704
127196
127196
127196
127196
127196
127196
127196
127196
127196
127196
127196
127196
127196
127196
127196
127196
127196
127196
127196
126413
126380
126380
126380
126380
126380
126380
126380
126380
125064
125064
125064
125064
125064
125064
125064
125064
125064
125064
125064
125064
125064
125064
125064
125064
125064
124574
124574
124574
124574
124574
124574
124574
124574
124574
124442
124442
124442
124442
124442
124442
124442
123375
123375
123375
123375
123375
123375
123375
123135
123135
123135
123135
123135
123135
123135
123135
122851
122851
122851
122851
122851
122851
122851
122851
122851
122851
122851
122851
122851
122851
122851
122851
122476
122476
122476
122476
122476
122476
122476
122476
122476
121548
121548
120952
120952
120952
120952
120952
120952
120952
120952
120952
120952
120952
120952
120952
120952
120824
120824
120824
120636
120636
120636
120636
120636
120636
120636
120636
120636
120636
120636
120636
120636
120636
120636
120636
120636
120636
120636
120513
120513
120513
120513
120513
120513
120513
120513
120513
120513
120513
120513
120451
120451
120451
120451
120451
120451
120451
120451
120451
119830
119830
119830
119830
119830
119830
119830
119830
118488
118488
118488
118488
118488
118488
118488
118488
118488
118488
118488
118488
118488
118488
118488
118187
118187
116589
116589
116589
116589
116589
116589
116143
116143
116143
116143
116143
116143
116143
115813
115813
115813
115813
115813
115813
115813
115813
115813
115813
115813
115813
115813
115813
115813
115813
115813
114245
114245
114245
114245
114245
114245
114245
114245
114245
114245
114245
114245
114245
114245
114245
114245
114245
114245
113417
113417
113417
113417
113417
113417
113417
113417
113300
113300
113300
113300
113300
113300
113300
113300
113300
113170
113170
113170
113170
113170
113170
113170
113170
113170
113170
113170
113170
113170
113170
113170
113170
113170
112902
112902
112902
112902
112902
112902
112902
112902
112902
112902
112902
112902
112902
112902
112902
111858
111858
111858
111858
111858
111858
111788
111788
111788
111788
111788
111788
111788
111788
111788
111788
111788
111788
111788
111788
111788
111788
111788
111788
111586
111586
111586
111586
111586
111586
111586
111586
111586
111586
111586
111586
111586
111586
111586
111586
111586
111449
111449
111449
111449
111277
111277
111277
111277
111277
111277
111277
111277
111277
111277
111277
111277
111277
111277
111011
111011
111011
111011
111011
111011
111011
111011
111011
111011
111011
111011
111011
111011
111011
111011
111011
111011
111011
110920
110920
110920
110920
108832
108832
108832
108832
108832
108611
108611
108611
108611
108611
108611
108611
108611
108611
108611
108611
108611
108458
108458
108458
108458
108458
108458
108458
108458
108077
108077
108077
108077
108077
108077
108077
108077
108077
108077
108077
108077
108077
107554
107554
107554
107554
107554
107554
107554
107554
106828
106828
106828
106828
106828
106828
106828
106828
106828
106828
106828
106828
106828
106828
106570
106570
106570
106570
106570
106435
106435
106435
106435
106018
106018
106018
106018
106018
106018
106018
106018
106018
105634
105634
105634
105634
105092
105092
105092
105092
105092
105092
105092
104090
104090
104090
104090
104090
104090
104090
104090
104090
104090
104090
104090
104090
104090
103472
103472
103472
103472
103472
103472
103472
103472
103472
103472
103472
103472
103472
103472
103472
103472
103472
103387
103387
103387
103387
103387
103387
103387
103387
103387
103387
103387
103387
103387
103387
103387
103387
103387
102783
102783
102783
102783
102783
102783
102783
102783
102783
102783
102783
102783
102783
102783
102783
102783
102396
102396
102396
102396
102396
102396
102396
102396
102396
102396
102396
102396
101528
101528
101528
101528
101528
101528
101528
101528
101528
101528
101528
101528
101528
97881
97881
97881
97881
97881
97821
97821
97821
97821
97821
97821
97821
97821
97821
97821
97821
97821
97821
97728
97728
97728
97358
97358
97358
97358
97358
97358
97358
97358
97358
97358
97358
97358
97358
97358
97358
97358
97358
96748
96748
96748
96748
96748
96748
96748
96748
96748
96748
96748
96748
96748
95535
95535
95535
95535
95535
95535
95535
95535
95535
95535
95535
95535
95535
95535
95535
95535
95535
95535
95271
95084
95084
95084
95084
95084
95084
95084
95084
95084
95084
95084
95084
95084
95084
95084
95084
94769
94769
94769
94769
94769
94769
94769
94769
94769
94769
94769
94769
94769
94769
94769
94769
94769
94769
94769
94731
94731
94731
94731
94731
94731
94731
94731
94731
94731
94731
93654
93654
93654
93654
93654
93654
93654
93654
93290
93290
93290
93290
93290
93290
93290
93290
93290
93290
93290
93290
93290
93290
93074
93074
93074
93074
93074
93074
92864
92818
92818
92818
92818
92818
92818
92818
92818
92818
92818
92818
92818
92634
91765
91765
91765
91765
91765
91765
91765
91765
91765
91765
91215
91215
91215
91215
91215
91215
91215
91215
91215
91215
91215
91215
91215
91215
91215
91215
91215
90209
90209
89117
89117
89117
89117
89117
89117
89117
89117
89117
89117
89117
89117
89068
89068
89068
89068
89068
89068
89068
86148
86021
86021
86021
86021
86021
86021
86021
86021
86021
86021
86021
86021
86021
84955
84955
84955
84955
84955
84955
84955
84955
84955
84955
84955
84955
84955
84884
84884
84884
84884
84884
84884
84884
84884
84884
84884
84884
84884
84884
84884
84884
84884
84884
84884
84884
84884
83921
83921
83921
83921
83921
83921
83921
83921
83921
83921
83921
80974
80974
80974
80974
80974
80974
80974
80974
80974
80847
80847
80847
80847
80847
80847
80847
80847
80847
80847
80847
80847
80847
80847
80847
80847
80847
80847
80847
80309
80309
80309
80309
80309
80309
80309
80309
80309
80309
80309
79398
79398
79398
79398
79398
79398
79398
79398
79398
79398
79234
79234
79234
79234
79234
79234
79234
79234
79234
79234
79234
79234
79234
79121
79121
79121
79121
79121
79121
79121
79121
79121
79121
79121
78665
78665
78665
78665
78665
78665
78665
78665
78665
78665
78665
78665
78665
78665
78665
78665
78665
78665
78665
78665
77798
77798
77798
77798
77798
77798
77798
77798
77525
77525
77525
77525
77525
77525
77525
77525
77525
77410
77410
77410
77410
77410
77410
77410
77410
77410
77410
77410
77410
77410
75392
75392
75392
75392
75392
75272
75272
75272
75272
75272
75272
75272
75272
75272
75272
75272
75272
73284
73284
73284
73284
73284
73284
73284
73284
73284
73284
73284
73284
73284
73284
73284
73284
73284
73284
73284
72815
72815
72815
72815
72815
72815
72815
72790
72790
72790
72790
72790
72790
72790
72790
72790
72598
72598
72598
72598
72598
72598
72598
72598
72598
72283
72283
72283
72283
72283
72283
70698
70698
70698
70698
70698
70698
70698
70698
69818
69818
69818
69818
69818
69818
69818
69818
69539
69139
69139
69139
69139
69139
69139
69139
69139
69139
69139
69139
69139
68998
68998
68998
68998
68998
68998
68998
68847
68847
68847
68847
68847
68847
68847
68847
68847
68847
68847
68847
68847
68847
68847
68581
68581
68581
68581
67118
67118
67118
67118
67118
67118
67118
67118
67118
67118
67118
67118
67118
67118
66578
66578
66578
66578
66578
66578
66578
66578
66578
66578
66578
66578
66578
66578
66355
66355
66355
66263
66263
66263
66263
66263
66263
66263
66263
66263
66263
66109
66109
66109
66109
66109
66109
66109
66109
66109
66109
66109
66109
66109
66109
66109
66109
66109
66109
66109
64784
64784
64784
64784
64784
64784
64784
64784
64784
64784
64784
64784
64219
64219
64219
64219
64219
63936
63936
63936
63936
63936
63936
63936
63936
63936
63936
63780
63780
63780
63780
63780
63725
63725
63725
63725
63725
63725
63725
63725
63725
63725
63725
63725
63725
63725
63027
63027
63027
63027
63027
63027
62611
62611
62611
62611
62611
62611
62611
62611
62611
62611
62611
62611
62611
62611
62611
62611
62611
62611
62611
62611
60056
60056
60056
60056
60056
60056
60056
60056
59294
59294
59294
59294
58848
58848
58848
58848
58848
58848
58848
58848
58848
58848
58848
58848
58848
58848
58647
58647
58647
58647
58647
58647
58647
58647
58647
58647
58647
58647
58647
58647
57002
57002
57002
57002
57002
57002
57002
57002
57002
57002
57002
57002
57002
57002
57002
54530
54530
54530
54530
54530
54530
54530
54530
54530
54530
54530
54530
54530
54530
54530
54530
53085
53085
53085
53085
53085
53085
53085
53085
53085
53085
53085
53085
53085
53085
53085
53085
53085
51090
51090
51090
51090
51090
51090
51090
51090
51090
51090
51090
51090
51090
51090
51090
51090
51090
51090
51090
51090
50949
50949
50949
50949
50949
50949
50949
50949
50949
50949
50949
50949
50949
50949
50949
50949
50669
50669
50669
50669
50669
50669
50669
50669
50669
50669
50669
50669
49607
49607
49607
49607
49607
49607
49607
49217
49217
49217
49217
49217
49217
49217
49217
49217
49217
49217
49217
49217
49217
48137
48137
48137
48137
48137
48137
48137
48137
48137
48137
48137
48137
48137
48137
48137
48137
48137
47797
47797
47797
44113
44113
44113
44066
44066
44066
43867
43867
43867
43867
43867
43867
43867
43589
43589
43589
43589
43589
43464
43464
43464
43464
43464
43464
43464
43464
43464
43464
43454
43454
43454
43454
43454
43454
43454
43454
43454
43454
43454
43454
43454
43454
43454
41505
41505
41505
41505
41505
41505
41505
41505
41505
41505
41505
41505
41505
41505
41505
41505
41505
41505
41505
41505
39652
39652
39652
39652
39652
39652
39652
39652
39652
39652
39652
39652
39652
39652
39652
39652
39413
39413
39413
39413
39413
36536
36536
36536
36536
36536
36536
36536
36536
36536
36073
36073
36073
36073
36073
36073
36073
36073
36073
36073
36073
36073
36073
36073
36073
35743
35743
35743
35743
35743
35743
35743
35743
35743
35211
35211
35211
35211
35211
35211
35211
35211
35211
35211
35211
35211
35211
35211
35211
35211
35211
35211
35211
34933
34933
34933
34933
34933
34933
34933
34933
34933
34649
34649
34649
34649
34649
34649
34649
34649
34649
34649
34649
34649
34649
34649
34649
34649
34649
34649
34649
33900
33900
33900
33900
33900
33900
33900
33900
33900
33900
33900
33900
33900
33900
33900
33900
33900
33900
33900
33900
33397
33397
33397
33397
33397
32867
32867
32867
32867
32867
32867
32867
32867
32867
32867
32867
32867
32867
32867
32867
32867
32867
32867
32867
32542
32542
32542
32542
32542
32542
32542
32542
32542
32542
32542
32542
32542
32542
32542
32542
32542
32542
32542
30925
30925
30925
30925
30925
30925
30925
30925
30816
30816
30816
30816
30816
30816
30816
30816
30816
30816
30816
30816
30816
29153
29153
29153
29153
29153
29086
29086
29086
29035
28669
28669
28669
28669
28669
28669
28669
28223
28223
28223
28223
28223
28223
28223
27094
27094
27094
27094
27094
27094
27094
27094
27094
27094
27094
27094
26879
26879
26879
26879
25163
24786
24786
24786
24786
24786
24786
24786
24786
24786
24786
23891
23891
23891
23747
23747
23747
23747
23747
23747
23747
22799
22799
22799
22799
22799
22799
22799
22799
22799
22799
22799
22799
22799
22799
22799
22799
22799
22799
22535
22535
22535
22535
22535
22535
22535
22535
22535
22535
22535
22535
22535
22535
22535
20170
20170
20170
20170
20170
20170
20170
20170
20170
20113
20113
20113
20113
20113
20113
20113
20113
20113
20113
20113
20113
20113
20113
20113
20113
20113
20113
20111
20111
20111
20111
20111
20111
20111
20111
20111
20111
20111
20111
19468
19468
19468
19468
19468
19468
19468
19468
19468
19468
19468
19468
19468
19468
19468
19468
19399
19399
19399
19399
19399
19399
19399
19399
19399
18805
18805
18805
18805
18805
18805
18805
18805
18805
18291
18291
18291
18291
18291
18291
18291
18291
18291
17010
17010
17010
17010
17010
17010
17010
17010
17010
17010
17010
16470
16470
16470
16470
16470
16470
16470
16470
16470
16470
16470
16470
16470
16470
16470
16090
16090
16090
16090
16090
16090
16090
15938
15938
15938
15938
15938
15938
15938
15938
15938
15938
15938
15938
15938
15938
15938
15938
15938
15938
15938
15938
15649
15649
15649
15649
15649
15649
15649
15649
15649
15649
15649
15649
15649
15649
15649
15649
15649
15073
15073
15073
15073
15073
15073
15073
15073
15073
15073
15073
15073
15073
15073
15073
15073
15073
15073
14976
14976
12382
12382
12382
12382
12382
12382
12382
12382
12328
12328
12289
12289
12289
12289
12289
12289
12289
12289
12289
12289
12289
12289
12289
12289
12289
11470
11470
11470
11470
11470
11057
11057
11057
11057
11057
11057
11057
11057
11057
11057
11057
11057
11057
11002
11002
11002
11002
11002
11002
11002
11002
10880
10880
10880
10880
10880
10880
10880
10880
10880
10880
10880
10880
10880
10880
10880
10880
10880
10880
10880
10880
9633
9633
9633
9633
9633
9633
9633
8575
8575
8575
8575
8575
8575
8575
8575
6761
6761
6761
6761
6761
6761
6761
5280
5280
5280
5280
5280
5280
5280
5280
5280
5280
5280
